(set-logic QF_LIA)
(declare-fun x0 () Int)
(declare-fun x1 () Int)
(declare-fun x2 () Int)
(declare-fun x3 () Int)
(declare-fun x4 () Int)
(declare-fun x5 () Int)
(declare-fun x6 () Int)
(declare-fun x7 () Int)
(declare-fun x8 () Int)
(declare-fun x9 () Int)
(declare-fun A0 () Bool)
(declare-fun A1 () Bool)
(declare-fun A2 () Bool)
(declare-fun A3 () Bool)
(declare-fun A4 () Bool)
(declare-fun A5 () Bool)
(declare-fun A6 () Bool)
(declare-fun A7 () Bool)
(declare-fun A8 () Bool)
(declare-fun A9 () Bool)
(assert (let ((.def_0 (* 1 x5))) (let ((.def_1 (< .def_0 1))) (let ((.def_2 (not A0))) (let ((.def_3 (or .def_2 .def_1))) (let ((.def_4 (not .def_3))) (let ((.def_5 (* 1 x9))) (let ((.def_6 (< .def_5 1))) (let ((.def_7 (or .def_6 A9))) (let ((.def_8 (not .def_7))) (let ((.def_9 (and .def_8 .def_4))) (let ((.def_10 (* (- 1) x6))) (let ((.def_11 (< .def_10 (- 1)))) (let ((.def_12 (* (- 1) x0))) (let ((.def_13 (+ .def_0 .def_12))) (let ((.def_14 (< .def_13 1))) (let ((.def_15 (not .def_14))) (let ((.def_16 (or .def_15 .def_11))) (let ((.def_17 (* 1 x8))) (let ((.def_18 (* (- 1) x2))) (let ((.def_19 (+ .def_18 .def_17))) (let ((.def_20 (< .def_19 (- 1)))) (let ((.def_21 (* 1 x3))) (let ((.def_22 (* (- 1) x4))) (let ((.def_23 (+ .def_22 .def_21))) (let ((.def_24 (< .def_23 1))) (let ((.def_25 (or .def_24 .def_20))) (let ((.def_26 (not .def_25))) (let ((.def_27 (= .def_26 .def_16))) (let ((.def_28 (and .def_27 .def_9))) (let ((.def_29 (* 1 x2))) (let ((.def_30 (< .def_29 (- 1)))) (let ((.def_31 (or .def_30 A6))) (let ((.def_32 (not .def_31))) (let ((.def_33 (+ .def_12 .def_21))) (let ((.def_34 (< .def_33 (- 1)))) (let ((.def_35 (* 1 x7))) (let ((.def_36 (* (- 1) x3))) (let ((.def_37 (+ .def_36 .def_35))) (let ((.def_38 (< .def_37 (- 1)))) (let ((.def_39 (or .def_38 .def_34))) (let ((.def_40 (= .def_39 .def_32))) (let ((.def_41 (not .def_40))) (let ((.def_42 (< .def_21 (- 1)))) (let ((.def_43 (not .def_42))) (let ((.def_44 (and A7 .def_43))) (let ((.def_45 (not .def_44))) (let ((.def_46 (< .def_36 (- 1)))) (let ((.def_47 (< .def_35 (- 1)))) (let ((.def_48 (not .def_47))) (let ((.def_49 (or .def_48 .def_46))) (let ((.def_50 (or .def_49 .def_45))) (let ((.def_51 (and .def_50 .def_41))) (let ((.def_52 (not .def_51))) (let ((.def_53 (= .def_52 .def_28))) (let ((.def_54 (* 1 x6))) (let ((.def_55 (* (- 1) x5))) (let ((.def_56 (+ .def_55 .def_54))) (let ((.def_57 (< .def_56 1))) (let ((.def_58 (not .def_57))) (let ((.def_59 (not A3))) (let ((.def_60 (= .def_59 .def_58))) (let ((.def_61 (not A7))) (let ((.def_62 (= A4 .def_61))) (let ((.def_63 (not .def_62))) (let ((.def_64 (and .def_63 .def_60))) (let ((.def_65 (not .def_64))) (let ((.def_66 (+ .def_29 .def_21))) (let ((.def_67 (< .def_66 1))) (let ((.def_68 (* (- 1) x8))) (let ((.def_69 (* 1 x4))) (let ((.def_70 (+ .def_69 .def_68))) (let ((.def_71 (< .def_70 1))) (let ((.def_72 (not .def_71))) (let ((.def_73 (or .def_72 .def_67))) (let ((.def_74 (< .def_12 1))) (let ((.def_75 (not .def_74))) (let ((.def_76 (or A8 .def_75))) (let ((.def_77 (not .def_76))) (let ((.def_78 (or .def_77 .def_73))) (let ((.def_79 (and .def_78 .def_65))) (let ((.def_80 (< .def_54 (- 1)))) (let ((.def_81 (not .def_80))) (let ((.def_82 (or .def_61 .def_81))) (let ((.def_83 (+ .def_54 .def_36))) (let ((.def_84 (< .def_83 1))) (let ((.def_85 (< .def_29 1))) (let ((.def_86 (and .def_85 .def_84))) (let ((.def_87 (= .def_86 .def_82))) (let ((.def_88 (not .def_87))) (let ((.def_89 (= A7 A8))) (let ((.def_90 (not .def_89))) (let ((.def_91 (not A6))) (let ((.def_92 (= A2 .def_91))) (let ((.def_93 (or .def_92 .def_90))) (let ((.def_94 (not .def_93))) (let ((.def_95 (or .def_94 .def_88))) (let ((.def_96 (or .def_95 .def_79))) (let ((.def_97 (or .def_96 .def_53))) (let ((.def_98 (not .def_97))) (let ((.def_99 (not A2))) (let ((.def_100 (and .def_99 A8))) (let ((.def_101 (not A4))) (let ((.def_102 (not A5))) (let ((.def_103 (or .def_102 .def_101))) (let ((.def_104 (or .def_103 .def_100))) (let ((.def_105 (not .def_104))) (let ((.def_106 (* (- 1) x9))) (let ((.def_107 (+ .def_22 .def_106))) (let ((.def_108 (< .def_107 (- 1)))) (let ((.def_109 (< .def_35 1))) (let ((.def_110 (and .def_109 .def_108))) (let ((.def_111 (< .def_0 (- 1)))) (let ((.def_112 (or A6 .def_111))) (let ((.def_113 (or .def_112 .def_110))) (let ((.def_114 (and .def_113 .def_105))) (let ((.def_115 (not .def_114))) (let ((.def_116 (+ .def_17 .def_29))) (let ((.def_117 (< .def_116 1))) (let ((.def_118 (not .def_117))) (let ((.def_119 (or A5 .def_118))) (let ((.def_120 (not .def_119))) (let ((.def_121 (+ .def_22 .def_5))) (let ((.def_122 (< .def_121 (- 1)))) (let ((.def_123 (not .def_122))) (let ((.def_124 (and A5 .def_123))) (let ((.def_125 (and .def_124 .def_120))) (let ((.def_126 (or .def_109 .def_48))) (let ((.def_127 (not .def_126))) (let ((.def_128 (< .def_17 1))) (let ((.def_129 (+ .def_106 .def_36))) (let ((.def_130 (< .def_129 (- 1)))) (let ((.def_131 (not .def_130))) (let ((.def_132 (or .def_131 .def_128))) (let ((.def_133 (or .def_132 .def_127))) (let ((.def_134 (and .def_133 .def_125))) (let ((.def_135 (or .def_134 .def_115))) (let ((.def_136 (not .def_135))) (let ((.def_137 (not A8))) (let ((.def_138 (* 1 x0))) (let ((.def_139 (+ .def_138 .def_29))) (let ((.def_140 (< .def_139 (- 1)))) (let ((.def_141 (and .def_140 .def_137))) (let ((.def_142 (not .def_141))) (let ((.def_143 (and .def_59 A0))) (let ((.def_144 (and .def_143 .def_142))) (let ((.def_145 (* (- 1) x7))) (let ((.def_146 (+ .def_145 .def_68))) (let ((.def_147 (< .def_146 1))) (let ((.def_148 (or .def_2 .def_147))) (let ((.def_149 (not .def_148))) (let ((.def_150 (+ .def_138 .def_106))) (let ((.def_151 (< .def_150 1))) (let ((.def_152 (not A9))) (let ((.def_153 (and .def_152 .def_151))) (let ((.def_154 (or .def_153 .def_149))) (let ((.def_155 (or .def_154 .def_144))) (let ((.def_156 (< .def_69 (- 1)))) (let ((.def_157 (not .def_156))) (let ((.def_158 (and .def_157 A1))) (let ((.def_159 (not .def_158))) (let ((.def_160 (< .def_106 (- 1)))) (let ((.def_161 (or .def_160 A1))) (let ((.def_162 (and .def_161 .def_159))) (let ((.def_163 (* 1 x1))) (let ((.def_164 (< .def_163 1))) (let ((.def_165 (and .def_164 A5))) (let ((.def_166 (not .def_165))) (let ((.def_167 (+ .def_163 .def_29))) (let ((.def_168 (< .def_167 1))) (let ((.def_169 (not .def_168))) (let ((.def_170 (+ .def_69 .def_10))) (let ((.def_171 (< .def_170 1))) (let ((.def_172 (and .def_171 .def_169))) (let ((.def_173 (not .def_172))) (let ((.def_174 (or .def_173 .def_166))) (let ((.def_175 (and .def_174 .def_162))) (let ((.def_176 (not .def_175))) (let ((.def_177 (and .def_176 .def_155))) (let ((.def_178 (not .def_177))) (let ((.def_179 (or .def_178 .def_136))) (let ((.def_180 (or .def_179 .def_98))) (let ((.def_181 (not .def_180))) (let ((.def_182 (+ .def_36 .def_22))) (let ((.def_183 (< .def_182 (- 1)))) (let ((.def_184 (not .def_183))) (let ((.def_185 (not .def_128))) (let ((.def_186 (and .def_185 .def_184))) (let ((.def_187 (not .def_186))) (let ((.def_188 (< .def_138 (- 1)))) (let ((.def_189 (not .def_188))) (let ((.def_190 (and .def_189 .def_2))) (let ((.def_191 (not .def_190))) (let ((.def_192 (and .def_191 .def_187))) (let ((.def_193 (+ .def_36 .def_163))) (let ((.def_194 (< .def_193 1))) (let ((.def_195 (not .def_111))) (let ((.def_196 (and .def_195 .def_194))) (let ((.def_197 (* (- 1) x1))) (let ((.def_198 (+ .def_18 .def_197))) (let ((.def_199 (< .def_198 1))) (let ((.def_200 (or .def_199 A3))) (let ((.def_201 (or .def_200 .def_196))) (let ((.def_202 (and .def_201 .def_192))) (let ((.def_203 (or A6 .def_6))) (let ((.def_204 (not A1))) (let ((.def_205 (or .def_204 A6))) (let ((.def_206 (and .def_205 .def_203))) (let ((.def_207 (not .def_206))) (let ((.def_208 (+ .def_163 .def_36))) (let ((.def_209 (< .def_208 (- 1)))) (let ((.def_210 (not .def_209))) (let ((.def_211 (or .def_2 .def_210))) (let ((.def_212 (not .def_211))) (let ((.def_213 (or A2 .def_11))) (let ((.def_214 (= .def_213 .def_212))) (let ((.def_215 (not .def_214))) (let ((.def_216 (or .def_215 .def_207))) (let ((.def_217 (= .def_216 .def_202))) (let ((.def_218 (+ .def_10 .def_163))) (let ((.def_219 (< .def_218 (- 1)))) (let ((.def_220 (not .def_219))) (let ((.def_221 (or .def_101 .def_220))) (let ((.def_222 (not .def_221))) (let ((.def_223 (< .def_106 1))) (let ((.def_224 (not .def_223))) (let ((.def_225 (and A3 .def_224))) (let ((.def_226 (not .def_225))) (let ((.def_227 (or .def_226 .def_222))) (let ((.def_228 (or A6 .def_152))) (let ((.def_229 (or A1 .def_137))) (let ((.def_230 (and .def_229 .def_228))) (let ((.def_231 (or .def_230 .def_227))) (let ((.def_232 (not .def_231))) (let ((.def_233 (+ .def_18 .def_54))) (let ((.def_234 (< .def_233 (- 1)))) (let ((.def_235 (= .def_152 .def_234))) (let ((.def_236 (+ .def_197 .def_36))) (let ((.def_237 (< .def_236 (- 1)))) (let ((.def_238 (and .def_102 .def_237))) (let ((.def_239 (not .def_238))) (let ((.def_240 (= .def_239 .def_235))) (let ((.def_241 (< .def_21 1))) (let ((.def_242 (not .def_241))) (let ((.def_243 (and .def_242 .def_137))) (let ((.def_244 (not .def_243))) (let ((.def_245 (+ .def_106 .def_197))) (let ((.def_246 (< .def_245 1))) (let ((.def_247 (not .def_246))) (let ((.def_248 (< .def_5 (- 1)))) (let ((.def_249 (not .def_248))) (let ((.def_250 (or .def_249 .def_247))) (let ((.def_251 (not .def_250))) (let ((.def_252 (= .def_251 .def_244))) (let ((.def_253 (not .def_252))) (let ((.def_254 (= .def_253 .def_240))) (let ((.def_255 (and .def_254 .def_232))) (let ((.def_256 (not .def_255))) (let ((.def_257 (= .def_256 .def_217))) (let ((.def_258 (not .def_257))) (let ((.def_259 (+ .def_10 .def_12))) (let ((.def_260 (< .def_259 1))) (let ((.def_261 (not .def_260))) (let ((.def_262 (or .def_152 .def_261))) (let ((.def_263 (not .def_262))) (let ((.def_264 (or A9 A9))) (let ((.def_265 (or .def_264 .def_263))) (let ((.def_266 (and A1 .def_48))) (let ((.def_267 (not .def_266))) (let ((.def_268 (and .def_102 A1))) (let ((.def_269 (not .def_268))) (let ((.def_270 (and .def_269 .def_267))) (let ((.def_271 (= .def_270 .def_265))) (let ((.def_272 (+ .def_5 .def_21))) (let ((.def_273 (< .def_272 1))) (let ((.def_274 (or .def_248 .def_273))) (let ((.def_275 (not .def_274))) (let ((.def_276 (+ .def_35 .def_106))) (let ((.def_277 (< .def_276 (- 1)))) (let ((.def_278 (not .def_277))) (let ((.def_279 (= .def_204 .def_278))) (let ((.def_280 (not .def_279))) (let ((.def_281 (and .def_280 .def_275))) (let ((.def_282 (not .def_281))) (let ((.def_283 (+ .def_106 .def_10))) (let ((.def_284 (< .def_283 (- 1)))) (let ((.def_285 (not .def_284))) (let ((.def_286 (and .def_285 .def_99))) (let ((.def_287 (not .def_286))) (let ((.def_288 (or .def_99 A1))) (let ((.def_289 (or .def_288 .def_287))) (let ((.def_290 (not .def_289))) (let ((.def_291 (or .def_290 .def_282))) (let ((.def_292 (not .def_291))) (let ((.def_293 (or .def_292 .def_271))) (let ((.def_294 (not .def_293))) (let ((.def_295 (< .def_22 1))) (let ((.def_296 (and .def_204 .def_295))) (let ((.def_297 (not .def_296))) (let ((.def_298 (< .def_163 (- 1)))) (let ((.def_299 (not .def_298))) (let ((.def_300 (or .def_164 .def_299))) (let ((.def_301 (not .def_300))) (let ((.def_302 (and .def_301 .def_297))) (let ((.def_303 (+ .def_21 .def_12))) (let ((.def_304 (< .def_303 (- 1)))) (let ((.def_305 (and .def_91 .def_304))) (let ((.def_306 (+ .def_55 .def_29))) (let ((.def_307 (< .def_306 1))) (let ((.def_308 (not .def_307))) (let ((.def_309 (= A8 .def_308))) (let ((.def_310 (and .def_309 .def_305))) (let ((.def_311 (or .def_310 .def_302))) (let ((.def_312 (not .def_311))) (let ((.def_313 (and .def_91 .def_295))) (let ((.def_314 (not .def_313))) (let ((.def_315 (+ .def_35 .def_36))) (let ((.def_316 (< .def_315 1))) (let ((.def_317 (and .def_316 .def_2))) (let ((.def_318 (and .def_317 .def_314))) (let ((.def_319 (not .def_318))) (let ((.def_320 (and .def_61 .def_137))) (let ((.def_321 (not .def_320))) (let ((.def_322 (or .def_2 .def_224))) (let ((.def_323 (not .def_322))) (let ((.def_324 (and .def_323 .def_321))) (let ((.def_325 (or .def_324 .def_319))) (let ((.def_326 (not .def_325))) (let ((.def_327 (or .def_326 .def_312))) (let ((.def_328 (and .def_327 .def_294))) (let ((.def_329 (or .def_328 .def_258))) (let ((.def_330 (not .def_329))) (let ((.def_331 (or .def_330 .def_181))) (let ((.def_332 (< .def_145 (- 1)))) (let ((.def_333 (not .def_332))) (let ((.def_334 (and A3 .def_333))) (let ((.def_335 (not .def_334))) (let ((.def_336 (and .def_137 .def_204))) (let ((.def_337 (not .def_336))) (let ((.def_338 (or .def_337 .def_335))) (let ((.def_339 (+ .def_22 .def_12))) (let ((.def_340 (< .def_339 1))) (let ((.def_341 (and A4 .def_340))) (let ((.def_342 (not .def_341))) (let ((.def_343 (+ .def_0 .def_54))) (let ((.def_344 (< .def_343 1))) (let ((.def_345 (and .def_47 .def_344))) (let ((.def_346 (not .def_345))) (let ((.def_347 (and .def_346 .def_342))) (let ((.def_348 (and .def_347 .def_338))) (let ((.def_349 (not .def_348))) (let ((.def_350 (< .def_54 1))) (let ((.def_351 (or .def_350 A1))) (let ((.def_352 (+ .def_68 .def_18))) (let ((.def_353 (< .def_352 (- 1)))) (let ((.def_354 (< .def_10 1))) (let ((.def_355 (not .def_354))) (let ((.def_356 (and .def_355 .def_353))) (let ((.def_357 (or .def_356 .def_351))) (let ((.def_358 (or A6 .def_59))) (let ((.def_359 (or .def_48 .def_59))) (let ((.def_360 (and .def_359 .def_358))) (let ((.def_361 (not .def_360))) (let ((.def_362 (and .def_361 .def_357))) (let ((.def_363 (or .def_362 .def_349))) (let ((.def_364 (not .def_363))) (let ((.def_365 (< .def_18 (- 1)))) (let ((.def_366 (not .def_365))) (let ((.def_367 (+ .def_163 .def_21))) (let ((.def_368 (< .def_367 (- 1)))) (let ((.def_369 (= .def_368 .def_366))) (let ((.def_370 (+ .def_18 .def_69))) (let ((.def_371 (< .def_370 (- 1)))) (let ((.def_372 (not .def_371))) (let ((.def_373 (and .def_59 .def_372))) (let ((.def_374 (not .def_373))) (let ((.def_375 (or .def_374 .def_369))) (let ((.def_376 (+ .def_12 .def_106))) (let ((.def_377 (< .def_376 1))) (let ((.def_378 (or .def_377 .def_204))) (let ((.def_379 (< .def_18 1))) (let ((.def_380 (not .def_379))) (let ((.def_381 (or .def_380 .def_61))) (let ((.def_382 (= .def_381 .def_378))) (let ((.def_383 (not .def_382))) (let ((.def_384 (or .def_383 .def_375))) (let ((.def_385 (+ .def_54 .def_138))) (let ((.def_386 (< .def_385 (- 1)))) (let ((.def_387 (and .def_48 .def_386))) (let ((.def_388 (not .def_387))) (let ((.def_389 (+ .def_55 .def_22))) (let ((.def_390 (< .def_389 1))) (let ((.def_391 (not .def_390))) (let ((.def_392 (and .def_391 .def_102))) (let ((.def_393 (not .def_392))) (let ((.def_394 (or .def_393 .def_388))) (let ((.def_395 (not .def_394))) (let ((.def_396 (< .def_197 (- 1)))) (let ((.def_397 (= .def_46 .def_396))) (let ((.def_398 (not .def_350))) (let ((.def_399 (< .def_352 1))) (let ((.def_400 (and .def_399 .def_398))) (let ((.def_401 (or .def_400 .def_397))) (let ((.def_402 (and .def_401 .def_395))) (let ((.def_403 (not .def_402))) (let ((.def_404 (and .def_403 .def_384))) (let ((.def_405 (and .def_404 .def_364))) (let ((.def_406 (not .def_405))) (let ((.def_407 (and .def_43 A7))) (let ((.def_408 (< .def_55 (- 1)))) (let ((.def_409 (not .def_408))) (let ((.def_410 (+ .def_36 .def_29))) (let ((.def_411 (< .def_410 (- 1)))) (let ((.def_412 (not .def_411))) (let ((.def_413 (and .def_412 .def_409))) (let ((.def_414 (not .def_413))) (let ((.def_415 (or .def_414 .def_407))) (let ((.def_416 (not .def_109))) (let ((.def_417 (+ .def_145 .def_197))) (let ((.def_418 (< .def_417 (- 1)))) (let ((.def_419 (and .def_418 .def_416))) (let ((.def_420 (+ .def_35 .def_10))) (let ((.def_421 (< .def_420 1))) (let ((.def_422 (not .def_421))) (let ((.def_423 (and .def_422 .def_185))) (let ((.def_424 (and .def_423 .def_419))) (let ((.def_425 (and .def_424 .def_415))) (let ((.def_426 (+ .def_69 .def_138))) (let ((.def_427 (< .def_426 (- 1)))) (let ((.def_428 (not .def_427))) (let ((.def_429 (or .def_428 A9))) (let ((.def_430 (+ .def_29 .def_0))) (let ((.def_431 (< .def_430 1))) (let ((.def_432 (not .def_431))) (let ((.def_433 (< .def_145 1))) (let ((.def_434 (= .def_433 .def_432))) (let ((.def_435 (not .def_434))) (let ((.def_436 (and .def_435 .def_429))) (let ((.def_437 (not .def_436))) (let ((.def_438 (+ .def_17 .def_22))) (let ((.def_439 (< .def_438 1))) (let ((.def_440 (not .def_439))) (let ((.def_441 (+ .def_12 .def_5))) (let ((.def_442 (< .def_441 (- 1)))) (let ((.def_443 (and .def_442 .def_440))) (let ((.def_444 (not .def_443))) (let ((.def_445 (and .def_102 .def_2))) (let ((.def_446 (not .def_445))) (let ((.def_447 (= .def_446 .def_444))) (let ((.def_448 (not .def_447))) (let ((.def_449 (and .def_448 .def_437))) (let ((.def_450 (not .def_449))) (let ((.def_451 (or .def_450 .def_425))) (let ((.def_452 (+ .def_36 .def_197))) (let ((.def_453 (< .def_452 1))) (let ((.def_454 (and .def_453 .def_242))) (let ((.def_455 (not .def_454))) (let ((.def_456 (= A0 A6))) (let ((.def_457 (not .def_456))) (let ((.def_458 (and .def_457 .def_455))) (let ((.def_459 (not .def_458))) (let ((.def_460 (not .def_30))) (let ((.def_461 (and .def_460 A7))) (let ((.def_462 (not .def_461))) (let ((.def_463 (+ .def_21 .def_145))) (let ((.def_464 (< .def_463 (- 1)))) (let ((.def_465 (and .def_195 .def_464))) (let ((.def_466 (not .def_465))) (let ((.def_467 (= .def_466 .def_462))) (let ((.def_468 (not .def_467))) (let ((.def_469 (and .def_468 .def_459))) (let ((.def_470 (not .def_469))) (let ((.def_471 (+ .def_10 .def_35))) (let ((.def_472 (< .def_471 (- 1)))) (let ((.def_473 (not .def_472))) (let ((.def_474 (< .def_272 (- 1)))) (let ((.def_475 (not .def_474))) (let ((.def_476 (or .def_475 .def_473))) (let ((.def_477 (+ .def_69 .def_197))) (let ((.def_478 (< .def_477 1))) (let ((.def_479 (= .def_478 A8))) (let ((.def_480 (not .def_479))) (let ((.def_481 (or .def_480 .def_476))) (let ((.def_482 (not .def_481))) (let ((.def_483 (and .def_2 .def_224))) (let ((.def_484 (not .def_483))) (let ((.def_485 (and A1 .def_2))) (let ((.def_486 (not .def_485))) (let ((.def_487 (or .def_486 .def_484))) (let ((.def_488 (not .def_487))) (let ((.def_489 (or .def_488 .def_482))) (let ((.def_490 (not .def_489))) (let ((.def_491 (and .def_490 .def_470))) (let ((.def_492 (= .def_491 .def_451))) (let ((.def_493 (and .def_492 .def_406))) (let ((.def_494 (not .def_493))) (let ((.def_495 (+ .def_138 .def_35))) (let ((.def_496 (< .def_495 1))) (let ((.def_497 (not .def_496))) (let ((.def_498 (= .def_497 A9))) (let ((.def_499 (+ .def_29 .def_22))) (let ((.def_500 (< .def_499 (- 1)))) (let ((.def_501 (not .def_500))) (let ((.def_502 (+ .def_69 .def_106))) (let ((.def_503 (< .def_502 (- 1)))) (let ((.def_504 (not .def_503))) (let ((.def_505 (and .def_504 .def_501))) (let ((.def_506 (not .def_505))) (let ((.def_507 (= .def_506 .def_498))) (let ((.def_508 (+ .def_106 .def_69))) (let ((.def_509 (< .def_508 1))) (let ((.def_510 (not .def_509))) (let ((.def_511 (+ .def_10 .def_17))) (let ((.def_512 (< .def_511 1))) (let ((.def_513 (and .def_512 .def_510))) (let ((.def_514 (and .def_61 A9))) (let ((.def_515 (or .def_514 .def_513))) (let ((.def_516 (and .def_515 .def_507))) (let ((.def_517 (not .def_516))) (let ((.def_518 (not .def_396))) (let ((.def_519 (or A1 .def_518))) (let ((.def_520 (not .def_519))) (let ((.def_521 (and .def_188 A5))) (let ((.def_522 (not .def_521))) (let ((.def_523 (or .def_522 .def_520))) (let ((.def_524 (< .def_17 (- 1)))) (let ((.def_525 (or .def_524 .def_152))) (let ((.def_526 (or A0 .def_99))) (let ((.def_527 (or .def_526 .def_525))) (let ((.def_528 (and .def_527 .def_523))) (let ((.def_529 (and .def_528 .def_517))) (let ((.def_530 (not .def_529))) (let ((.def_531 (and .def_409 .def_204))) (let ((.def_532 (and .def_531 .def_229))) (let ((.def_533 (not .def_532))) (let ((.def_534 (+ .def_5 .def_163))) (let ((.def_535 (< .def_534 1))) (let ((.def_536 (not .def_535))) (let ((.def_537 (or .def_152 .def_536))) (let ((.def_538 (not .def_537))) (let ((.def_539 (+ .def_17 .def_18))) (let ((.def_540 (< .def_539 (- 1)))) (let ((.def_541 (and A2 .def_540))) (let ((.def_542 (not .def_541))) (let ((.def_543 (and .def_542 .def_538))) (let ((.def_544 (not .def_543))) (let ((.def_545 (or .def_544 .def_533))) (let ((.def_546 (+ .def_5 .def_138))) (let ((.def_547 (< .def_546 (- 1)))) (let ((.def_548 (not .def_547))) (let ((.def_549 (and .def_2 .def_548))) (let ((.def_550 (not .def_549))) (let ((.def_551 (+ .def_22 .def_68))) (let ((.def_552 (< .def_551 (- 1)))) (let ((.def_553 (not .def_552))) (let ((.def_554 (and .def_553 .def_408))) (let ((.def_555 (and .def_554 .def_550))) (let ((.def_556 (or .def_59 A1))) (let ((.def_557 (< .def_12 (- 1)))) (let ((.def_558 (or .def_557 A2))) (let ((.def_559 (and .def_558 .def_556))) (let ((.def_560 (and .def_559 .def_555))) (let ((.def_561 (not .def_560))) (let ((.def_562 (and .def_561 .def_545))) (let ((.def_563 (or .def_562 .def_530))) (let ((.def_564 (and .def_59 .def_204))) (let ((.def_565 (not .def_564))) (let ((.def_566 (not .def_160))) (let ((.def_567 (and .def_566 A9))) (let ((.def_568 (not .def_567))) (let ((.def_569 (and .def_568 .def_565))) (let ((.def_570 (not .def_569))) (let ((.def_571 (+ .def_197 .def_138))) (let ((.def_572 (< .def_571 1))) (let ((.def_573 (not .def_572))) (let ((.def_574 (not .def_295))) (let ((.def_575 (or .def_574 .def_573))) (let ((.def_576 (and A8 .def_557))) (let ((.def_577 (or .def_576 .def_575))) (let ((.def_578 (or .def_577 .def_570))) (let ((.def_579 (and A2 .def_350))) (let ((.def_580 (and .def_61 A5))) (let ((.def_581 (or .def_580 .def_579))) (let ((.def_582 (or .def_241 .def_408))) (let ((.def_583 (not .def_582))) (let ((.def_584 (+ .def_0 .def_36))) (let ((.def_585 (< .def_584 1))) (let ((.def_586 (not .def_585))) (let ((.def_587 (and .def_586 A7))) (let ((.def_588 (and .def_587 .def_583))) (let ((.def_589 (not .def_588))) (let ((.def_590 (and .def_589 .def_581))) (let ((.def_591 (not .def_590))) (let ((.def_592 (and .def_591 .def_578))) (let ((.def_593 (not .def_592))) (let ((.def_594 (or A4 A2))) (let ((.def_595 (+ .def_163 .def_0))) (let ((.def_596 (< .def_595 1))) (let ((.def_597 (or A8 .def_596))) (let ((.def_598 (or .def_597 .def_594))) (let ((.def_599 (not .def_598))) (let ((.def_600 (not .def_11))) (let ((.def_601 (and .def_600 A6))) (let ((.def_602 (not .def_601))) (let ((.def_603 (= A3 .def_101))) (let ((.def_604 (not .def_603))) (let ((.def_605 (and .def_604 .def_602))) (let ((.def_606 (and .def_605 .def_599))) (let ((.def_607 (+ .def_69 .def_12))) (let ((.def_608 (< .def_607 (- 1)))) (let ((.def_609 (not .def_608))) (let ((.def_610 (+ .def_68 .def_21))) (let ((.def_611 (< .def_610 (- 1)))) (let ((.def_612 (not .def_611))) (let ((.def_613 (and .def_612 .def_609))) (let ((.def_614 (or A2 .def_204))) (let ((.def_615 (not .def_614))) (let ((.def_616 (or .def_615 .def_613))) (let ((.def_617 (not .def_616))) (let ((.def_618 (+ .def_17 .def_35))) (let ((.def_619 (< .def_618 1))) (let ((.def_620 (not .def_619))) (let ((.def_621 (or .def_332 .def_620))) (let ((.def_622 (not .def_621))) (let ((.def_623 (+ .def_138 .def_145))) (let ((.def_624 (< .def_623 1))) (let ((.def_625 (not .def_624))) (let ((.def_626 (and .def_102 .def_625))) (let ((.def_627 (and .def_626 .def_622))) (let ((.def_628 (and .def_627 .def_617))) (let ((.def_629 (and .def_628 .def_606))) (let ((.def_630 (not .def_629))) (let ((.def_631 (= .def_630 .def_593))) (let ((.def_632 (not .def_631))) (let ((.def_633 (and .def_632 .def_563))) (let ((.def_634 (or .def_633 .def_494))) (let ((.def_635 (not .def_634))) (let ((.def_636 (or .def_635 .def_331))) (let ((.def_637 (not .def_636))) (let ((.def_638 (<= x9 1))) (let ((.def_639 (<= 0 x9))) (let ((.def_640 (<= x8 1))) (let ((.def_641 (<= 0 x8))) (let ((.def_642 (<= x7 1))) (let ((.def_643 (<= 0 x7))) (let ((.def_644 (<= x6 1))) (let ((.def_645 (<= 0 x6))) (let ((.def_646 (<= x5 1))) (let ((.def_647 (<= 0 x5))) (let ((.def_648 (<= x4 1))) (let ((.def_649 (<= 0 x4))) (let ((.def_650 (<= x3 1))) (let ((.def_651 (<= 0 x3))) (let ((.def_652 (<= x2 1))) (let ((.def_653 (<= 0 x2))) (let ((.def_654 (<= x1 1))) (let ((.def_655 (<= 0 x1))) (let ((.def_656 (<= x0 1))) (let ((.def_657 (<= 0 x0))) (let ((.def_658 (and .def_657 .def_656 .def_655 .def_654 .def_653 .def_652 .def_651 .def_650 .def_649 .def_648 .def_647 .def_646 .def_645 .def_644 .def_643 .def_642 .def_641 .def_640 .def_639 .def_638 .def_637))) .def_658))))))))))))))))))))))))))))))))))))))))))))))))))))))))))))))))))))))))))))))))))))))))))))))))))))))))))))))))))))))))))))))))))))))))))))))))))))))))))))))))))))))))))))))))))))))))))))))))))))))))))))))))))))))))))))))))))))))))))))))))))))))))))))))))))))))))))))))))))))))))))))))))))))))))))))))))))))))))))))))))))))))))))))))))))))))))))))))))))))))))))))))))))))))))))))))))))))))))))))))))))))))))))))))))))))))))))))))))))))))))))))))))))))))))))))))))))))))))))))))))))))))))))))))))))))))))))))))))))))))))))))))))))))))))))))))))))))))))))))))))))))))))))))))))))))))))))))))))))))))))))))))))))))))))))))))))))))))))))))))))))))))))))))))))))))
(check-sat)
